n_machines = 3;
n_resources = 6;
n_jobs = 60;
horizon = 2789;
LB = 929;
n_jobs_per_resource = [10, 10, 10, 10, 10, 10];
duration = [28, 3, 95, 21, 9, 81, 15, 20, 41, 87, 48, 91, 5, 30, 36, 17, 94, 79, 50, 7, 60, 92, 89, 62, 39, 9, 77, 76, 51, 55, 14, 86, 69, 29, 81, 77, 60, 3, 70, 27, 26, 48, 64, 49, 26, 63, 5, 88, 72, 2, 10, 8, 49, 96, 59, 34, 49, 2, 11, 45]